nbGenes = 10;
preference = [[0 73 72 74 67 36 92 23 57 8 ]
[27 0 62 42 35 15 51 87 25 91 ]
[28 38 0 54 62 73 83 94 12 7 ]
[26 58 46 0 31 48 61 5 26 71 ]
[33 65 38 69 0 5 18 90 10 0 ]
[64 85 27 52 95 0 44 30 24 58 ]
[8 49 17 39 82 56 0 98 92 60 ]
[77 13 6 95 10 70 2 0 41 33 ]
[43 75 88 74 90 76 8 59 0 30 ]
[92 9 93 29 100 42 40 67 70 0 ]
];
